n = 5;
m = 5;
PRISIONER = { P1, P2, P3, P4, P5, P6, P7, P8 };
danger = { P2, P5, P7 };
female = { P1, P3, P6, P8 };
cost = [|
  1,  2,  3,  4,  5 |
  6,  7,  8,  9, 10 |
  11, 12, 13, 14, 15 |
  16, 17, 18, 19, 20 |
  21, 22, 23, 24, 25 |];
